proyfinal/src/viki/013/experimentInOfficeAgust.take6.output/54d34969-e1be-4716-a3f8-baf7b4b5e5e0.als.dat
{'cnf.clauses': '118081',
 'cnf.totvars': '69608',
 'conflict literals': '6',
 'conflicts': '6',
 'decisions': '5061',
 'memused.mb': '15.08',
 'outcome': 'UNSAT',
 'propagations': '27626',
 'restarts': '1',
 'solver.msecs': 34,
 'task.msecs': 79}
