proyfinal/src/viki/013/experimentInOfficeAgust.take6.output/54d34969-e1be-4716-a3f8-baf7b4b5e5e0.als.out
Reading from standard input... Use '--help' for help.
============================[ Problem Statistics ]=============================
|                                                                             |
|  Number of variables:         69608                                         |
|  Number of clauses:          118081                                         |
|  Parse time:                   0.03 s                                       |
|                                                                             |
============================[ Search Statistics ]==============================
| Conflicts |          ORIGINAL         |          LEARNT          | Progress |
|           |    Vars  Clauses Literals |    Limit  Clauses Lit/Cl |          |
===============================================================================
===============================================================================
restarts              : 1
conflicts             : 6              (173 /sec)
decisions             : 5061           (0.00 % random) (145960 /sec)
propagations          : 27626          (796735 /sec)
conflict literals     : 6              (0.00 % deleted)
Memory used           : 15.08 MB
CPU time              : 0.034674 s

UNSATISFIABLE
